NAME : instances/clustered-mixed-tsp/instance-60.tsp
COMMENT : No Comment
TYPE : TSP
DIMENSION: 42
EDGE_WEIGHT_TYPE : EUC_2D
NODE_COORD_SECTION
1 4145 1701 
2 1676 303 
3 3704 4573 
4 3900 3550 
5 3510 4463 
6 4250 3875 
7 3897 4519 
8 4070 3737 
9 3854 4431 
10 3503 1988 
11 3986 3848 
12 4251 4169 
13 3998 3730 
14 4321 3969 
15 2044 601 
16 3761 4947 
17 1814 567 
18 3814 5031 
19 4092 4331 
20 4047 4916 
21 1483 937 
22 4159 4016 
23 3564 4805 
24 4137 5031 
25 1994 607 
26 3538 2048 
27 4138 3697 
28 1649 75 
29 3628 4819 
30 3982 4169 
31 3732 5028 
32 4241 4175 
33 3559 4724 
34 4018 4032 
35 4055 1809 
36 4055 4567 
37 3823 4488 
38 4116 4870 
39 4322 3810 
40 3648 4414 
41 4090 4889 
42 1480 708 
EOF
